LengthSchedulingHorizon=5037;
nAttributes=5;
SetupCosts=[[0, 0, 0, 0, 0], [19, 9, 21, 21, 13], [9, 3, 24, 4, 4], [21, 24, 23, 9, 24], [21, 4, 9, 20, 12], [13, 4, 24, 12, 24]];
SetupTimes=[[0, 0, 0, 0, 0], [6, 15, 10, 11, 6], [15, 23, 23, 24, 19], [10, 23, 25, 19, 11], [11, 24, 19, 6, 12], [6, 19, 11, 12, 8]];
nMachines=5;
MinCap=[0, 0, 0, 0, 0];
MaxCap=[19, 8, 12, 20, 10];

initState=[1, 5, 1, 3, 1];
nShifts=5;
ShiftStartTimes = [[0, 0, 542, 3060, 3746], [0, 0, 843, 2977, 4291], [0, 0, 0, 0, 1171], [0, 0, 870, 1820, 2286], [168, 2239, 2871, 2992, 4803]];
ShiftEndTimes = [[0, 0, 2546, 3641, 4738], [0, 0, 2500, 4100, 4977], [0, 0, 0, 0, 4955], [0, 0, 1755, 2233, 4779], [2184, 2839, 2989, 4784, 5012]];
nJobs=50;
EligibleMachines = [{1, 4}, {1, 3}, {1, 3, 4}, {1, 5}, {1, 4}, {1, 3}, {1, 3}, {2, 3}, {2, 4}, {3}, {2, 5}, {2, 3, 4}, {3, 4}, {2, 3, 4}, {1, 4}, {5}, {3}, {4}, {2, 3, 4}, {2, 3, 4, 5}, {2, 5}, {2, 4}, {1, 2, 3, 4, 5}, {1, 5}, {4, 5}, {1, 4}, {1, 3, 5}, {3, 5}, {2, 4, 5}, {1, 2, 3}, {2, 3}, {4, 5}, {3, 5}, {2, 3, 4}, {3, 5}, {2}, {1, 2, 5}, {1, 4, 5}, {1, 2}, {4}, {1, 3}, {1, 2}, {1, 3, 5}, {1, 2}, {5}, {1}, {4}, {5}, {5}, {4}];
EarliestStart=[9, 107, 90, 18, 148, 184, 67, 128, 76, 62, 25, 185, 9, 53, 136, 82, 183, 150, 162, 23, 188, 126, 76, 101, 214, 105, 203, 214, 141, 128, 185, 40, 112, 188, 152, 41, 218, 123, 175, 188, 33, 9, 126, 132, 229, 154, 228, 129, 8, 71];
LatestEnd=[197, 202, 193, 154, 314, 256, 139, 248, 340, 156, 219, 262, 13, 120, 389, 183, 341, 208, 278, 151, 357, 355, 190, 149, 407, 164, 293, 357, 185, 264, 319, 165, 332, 239, 231, 115, 324, 427, 287, 222, 233, 10, 222, 256, 346, 371, 370, 141, 197, 167];
MinTime=[42, 81, 79, 31, 44, 35, 20, 45, 92, 21, 66, 38, 1, 26, 53, 38, 39, 15, 51, 34, 46, 64, 52, 25, 99, 17, 24, 42, 41, 69, 64, 31, 60, 37, 58, 43, 59, 86, 83, 8, 44, 1, 78, 62, 65, 45, 39, 7, 94, 62];
MaxTime=[100, 100, 100, 100, 100, 100, 100, 100, 100, 100, 100, 100, 100, 100, 100, 100, 100, 100, 100, 100, 100, 100, 100, 100, 100, 100, 100, 100, 100, 100, 100, 100, 100, 100, 100, 100, 100, 100, 100, 100, 100, 100, 100, 100, 100, 100, 100, 100, 100, 100];
JobSize=[2, 5, 1, 3, 4, 3, 2, 3, 3, 4, 4, 2, 4, 1, 4, 5, 1, 2, 2, 3, 3, 1, 3, 2, 5, 3, 3, 3, 4, 4, 3, 1, 4, 2, 2, 4, 3, 2, 4, 5, 1, 4, 5, 2, 5, 1, 2, 5, 2, 1];
Attribute=[5, 2, 2, 5, 3, 2, 4, 1, 5, 3, 3, 2, 5, 3, 5, 1, 4, 5, 3, 1, 3, 2, 4, 5, 5, 5, 2, 5, 1, 2, 1, 2, 5, 5, 3, 5, 4, 3, 4, 4, 3, 2, 2, 2, 5, 5, 4, 5, 1, 5];

upper_bound_integer_objective=300000;
mult_factor_total_runtime=50;
mult_factor_finished_toolate=2400;
mult_factor_total_setuptimes=0;
mult_factor_total_setupcosts=50;
running_time_bound=2356;
min_duration=1;
max_duration=99;
max_setup_time=25;
max_setup_cost=24;
